
Gurobi 11.0.0 (win64, C++) logging started Mon Jul 28 22:28:16 2025

Set parameter TokenServer to value "141.76.38.119"
### START HEURISTIC APPROACH APPROACH ###
ProblemVariant: 1
### START PREPROCESSING ###
## Start start solution procedure ##
Start solution with 17 Vehicles and total costs 1172 in 60.2462 s.
### END PREPROCESSING ###
Route 0 0-4-34-0 : weight util 0.350000 | volume util 0.422933 | infeasible with packing heuristic | feasible with CP model
Route 1 0-40-0 : weight util 0.235714 | volume util 0.211600 | infeasible with packing heuristic | feasible with CP model
Route 2 0-67-46-8-52-0 : weight util 0.657143 | volume util 0.550533 | infeasible with packing heuristic | feasible with CP model
Route 3 0-25-55-18-50-32-0 : weight util 0.600000 | volume util 0.468111 | infeasible with packing heuristic | feasible with CP model
Route 4 0-11-38-10-31-0 : weight util 0.800000 | volume util 0.591067 | infeasible with packing heuristic | feasible with CP model
Route 5 0-57-20-15-0 : weight util 0.314286 | volume util 0.482889 | infeasible with packing heuristic | feasible with CP model
Route 6 0-75-73-33-17-0 : weight util 0.521429 | volume util 0.610044 | infeasible with packing heuristic | feasible with CP model
Route 7 0-16-3-44-9-39-0 : weight util 0.657143 | volume util 0.658578 | infeasible with packing heuristic | feasible with CP model
Route 8 0-5-37-48-45-0 : weight util 0.542857 | volume util 0.669889 | infeasible with packing heuristic | feasible with CP model
Route 9 0-30-21-61-28-62-0 : weight util 0.800000 | volume util 0.698267 | infeasible with packing heuristic | feasible with CP model
Route 10 0-68-2-74-0 : weight util 0.328571 | volume util 0.384422 | infeasible with packing heuristic | feasible with CP model
Route 11 0-35-19-54-13-27-0 : weight util 0.500000 | volume util 0.630711 | infeasible with packing heuristic | feasible with CP model
Route 12 0-26-12-72-58-7-0 : weight util 0.507143 | volume util 0.529889 | infeasible with packing heuristic | feasible with CP model
Route 13 0-47-36-69-71-60-70-29-0 : weight util 0.564286 | volume util 0.587044 | infeasible with packing heuristic | feasible with CP model
Route 14 0-53-14-59-66-65-0 : weight util 0.878571 | volume util 0.530644 | infeasible with packing heuristic | feasible with CP model
Route 15 0-63-23-56-24-49-51-0 : weight util 0.621429 | volume util 0.749822 | infeasible with packing heuristic | feasible with CP model
Route 16 0-22-64-42-41-43-1-6-0 : weight util 0.864286 | volume util 0.645467 | infeasible with packing heuristic | feasible with CP model
